NAME : random_8
COMMENT : 35 random nodes
TYPE : TSP
DIMENSION : 35
EDGE_WEIGHT_TYPE : EUC_2D
NODE_COORD_SECTION
1 2453 -1472
2 -1153 378
3 -1891 -1026
4 4120 3003
5 2893 3729
6 390 -695
7 -1073 -2374
8 -2674 1947
9 2311 -1384
10 -782 270
11 -350 3594
12 -2147 428
13 4192 -2423
14 4478 -2282
15 -2189 1822
16 3886 -216
17 -1337 -697
18 2623 1107
19 2497 -156
20 -170 1214
21 -28 -153
22 -2302 3371
23 -1635 77
24 4087 1308
25 2969 4037
26 -113 3513
27 4215 -1401
28 -541 440
29 -1218 523
30 1479 325
31 907 -330
32 2931 -1810
33 -1003 1302
34 929 2150
35 3527 2024
EOF